50 1225
1 2 546
1 3 100
1 4 330
1 5 670
1 6 531
1 7 304
1 8 594
1 9 238
1 10 414
1 11 371
1 12 668
1 13 386
1 14 494
1 15 458
1 16 62
1 17 603
1 18 714
1 19 275
1 20 615
1 21 718
1 22 639
1 23 304
1 24 367
1 25 302
1 26 561
1 27 121
1 28 238
1 29 694
1 30 550
1 31 492
1 32 383
1 33 573
1 34 306
1 35 806
1 36 798
1 37 357
1 38 332
1 39 316
1 40 135
1 41 343
1 42 224
1 43 705
1 44 547
1 45 554
1 46 368
1 47 772
1 48 666
1 49 393
1 50 727
2 3 518
2 4 248
2 5 442
2 6 192
2 7 814
2 8 285
2 9 651
2 10 177
2 11 511
2 12 958
2 13 591
2 14 77
2 15 506
2 16 512
2 17 767
2 18 678
2 19 678
2 20 151
2 21 881
2 22 200
2 23 844
2 24 182
2 25 277
2 26 701
2 27 596
2 28 684
2 29 1036
2 30 482
2 31 64
2 32 889
2 33 461
2 34 649
2 35 1135
2 36 883
2 37 504
2 38 248
2 39 390
2 40 680
2 41 215
2 42 408
2 43 834
2 44 9
2 45 298
2 46 750
2 47 502
2 48 1052
2 49 177
2 50 407
3 4 279
3 5 710
3 6 469
3 7 392
3 8 615
3 9 338
3 10 364
3 11 446
3 12 768
3 13 472
3 14 478
3 15 526
3 16 42
3 17 694
3 18 785
3 19 375
3 20 609
3 21 811
3 22 639
3 23 374
3 24 349
3 25 249
3 26 648
3 27 222
3 28 339
3 29 795
3 30 608
3 31 471
3 32 470
3 33 625
3 34 403
3 35 907
3 36 885
3 37 432
3 38 339
3 39 367
3 40 209
3 41 337
3 42 276
3 43 795
3 44 520
3 45 580
3 46 469
3 47 810
3 48 766
3 49 387
3 50 755
4 5 566
4 6 202
4 7 626
4 8 430
4 9 499
4 10 85
4 11 456
4 12 882
4 13 521
4 14 229
4 15 497
4 16 283
4 17 736
4 18 733
4 19 532
4 20 367
4 21 859
4 22 407
4 23 635
4 24 127
4 25 30
4 26 676
4 27 412
4 28 521
4 29 939
4 30 529
4 31 214
4 32 705
4 33 527
4 34 526
4 35 1047
4 36 896
4 37 444
4 38 190
4 39 328
4 40 466
4 41 152
4 42 286
4 43 824
4 44 252
4 45 413
4 46 620
4 47 653
4 48 934
4 49 181
4 50 574
5 6 626
5 7 798
5 8 156
5 9 605
5 10 553
5 11 361
5 12 695
5 13 419
5 14 386
5 15 277
5 16 678
5 17 465
5 18 272
5 19 609
5 20 312
5 21 546
5 22 271
5 23 874
5 24 438
5 25 578
5 26 409
5 27 633
5 28 648
5 29 798
5 30 167
5 31 408
5 32 851
5 33 126
5 34 548
5 35 871
5 36 500
5 37 367
5 38 390
5 39 354
5 40 758
5 41 417
5 42 445
5 43 488
5 44 433
5 45 154
5 46 629
5 47 102
5 48 849
5 49 384
5 50 106
6 7 829
6 8 470
6 9 697
6 10 126
6 11 620
6 12 1062
6 13 693
6 14 240
6 15 639
6 16 480
6 17 895
6 18 844
6 19 730
6 20 343
6 21 1015
6 22 392
6 23 835
6 24 248
6 25 229
6 26 831
6 27 614
6 28 721
6 29 1126
6 30 641
6 31 218
6 32 907
6 33 627
6 34 718
6 35 1232
6 36 1033
6 37 610
6 38 335
6 39 490
6 40 666
6 41 290
6 42 471
6 43 974
6 44 201
6 45 475
6 46 815
6 47 692
6 48 1127
6 49 283
6 50 599
7 8 778
7 9 192
7 10 707
7 11 437
7 12 482
7 13 392
7 14 750
7 15 527
7 16 364
7 17 528
7 18 732
7 19 191
7 20 847
7 21 611
7 22 858
7 23 103
7 24 632
7 25 600
7 26 518
7 27 218
7 28 150
7 29 465
7 30 640
7 31 753
7 32 78
7 33 676
7 34 255
7 35 571
7 36 723
7 37 430
7 38 571
7 39 475
7 40 186
7 41 598
7 42 415
7 43 623
7 44 813
7 45 730
7 46 216
7 47 896
7 48 409
7 49 642
7 50 883
8 9 587
8 10 405
8 11 366
8 12 772
8 13 441
8 14 231
8 15 311
8 16 590
8 17 553
8 18 409
8 19 600
8 20 160
8 21 652
8 22 128
8 23 840
8 24 303
8 25 447
8 26 490
8 27 585
8 28 628
8 29 866
8 30 238
8 31 253
8 32 841
8 33 204
8 34 549
8 35 952
8 36 628
8 37 367
8 38 277
8 39 303
8 40 703
8 41 291
8 42 380
8 43 598
8 44 276
8 45 49
8 46 643
8 47 226
8 48 904
8 49 250
8 50 145
9 10 571
9 11 246
9 12 430
9 13 211
9 14 581
9 15 337
9 16 297
9 17 392
9 18 559
9 19 37
9 20 667
9 21 497
9 22 674
9 23 273
9 24 475
9 25 477
9 26 364
9 27 117
9 28 42
9 29 459
9 30 450
9 31 588
9 32 253
9 33 485
9 34 83
9 35 571
9 36 592
9 37 238
9 38 403
9 39 288
9 40 212
9 41 437
9 42 242
9 43 494
9 44 649
9 45 539
9 46 131
9 47 704
9 48 440
9 49 474
9 50 690
10 11 500
10 12 938
10 13 571
10 14 181
10 15 527
10 16 369
10 17 778
10 18 747
10 19 604
10 20 314
10 21 899
10 22 359
10 23 719
10 24 132
10 25 115
10 26 715
10 27 491
10 28 596
10 29 1001
10 30 542
10 31 161
10 32 785
10 33 533
10 34 591
10 35 1107
10 36 925
10 37 489
10 38 217
10 39 369
10 40 550
10 41 172
10 42 345
10 43 860
10 44 183
10 45 398
10 46 689
10 47 631
10 48 1001
10 49 178
10 50 545
11 12 447
11 13 80
11 14 434
11 15 93
11 16 405
11 17 280
11 18 343
11 19 248
11 20 479
11 21 402
11 22 473
11 23 518
11 24 372
11 25 449
11 26 220
11 27 295
11 28 288
11 29 525
11 30 204
11 31 448
11 32 490
11 33 238
11 34 189
11 35 624
11 36 450
11 37 14
11 38 285
11 39 130
11 40 423
11 41 330
11 42 184
11 43 370
11 44 506
11 45 316
11 46 278
11 47 458
11 48 549
11 49 345
11 50 450
12 13 369
12 14 881
12 15 464
12 16 727
12 17 231
12 18 476
12 19 394
12 20 910
12 21 204
12 22 894
12 23 582
12 24 815
12 25 868
12 26 286
12 27 547
12 28 438
12 29 110
12 30 539
12 31 895
12 32 461
12 33 579
12 34 369
12 35 180
12 36 329
12 37 455
12 38 729
12 39 574
12 40 621
12 41 772
12 42 595
12 43 253
12 44 952
12 45 726
12 46 303
12 47 759
12 48 190
12 49 791
12 50 801
13 14 514
13 15 142
13 16 430
13 17 225
13 18 348
13 19 202
13 20 559
13 21 346
13 22 552
13 23 482
13 24 446
13 25 510
13 26 175
13 27 290
13 28 251
13 29 445
13 30 254
13 31 527
13 32 436
13 33 293
13 34 136
13 35 544
13 36 412
13 37 86
13 38 359
13 39 205
13 40 412
13 41 403
13 42 238
13 43 323
13 44 586
13 45 392
13 46 210
13 47 512
13 48 468
13 49 422
13 50 515
14 15 429
14 16 467
14 17 690
14 18 610
14 19 607
14 20 138
14 21 805
14 22 179
14 23 785
14 24 129
14 25 254
14 26 625
14 27 533
14 28 615
14 29 959
14 30 410
14 31 22
14 32 824
14 33 392
14 34 575
14 35 1058
14 36 809
14 37 428
14 38 179
14 39 314
14 40 625
14 41 153
14 42 338
14 43 759
14 44 71
14 45 235
14 46 677
14 47 456
14 48 976
14 49 107
14 50 366
15 16 487
15 17 261
15 18 258
15 19 336
15 20 446
15 21 377
15 22 431
15 23 610
15 24 395
15 25 494
15 26 195
15 27 389
15 28 379
15 29 555
15 30 113
15 31 446
15 32 576
15 33 151
15 34 273
15 35 644
15 36 399
15 37 105
15 38 311
15 39 174
15 40 516
15 41 355
15 42 253
15 43 334
15 44 499
15 45 264
15 46 352
15 47 371
15 48 592
15 49 356
15 50 374
16 17 651
16 18 745
16 19 335
16 20 594
16 21 768
16 22 622
16 23 356
16 24 338
16 25 254
16 26 605
16 27 182
16 28 300
16 29 755
16 30 571
16 31 461
16 32 442
16 33 590
16 34 361
16 35 868
16 36 842
16 37 391
16 38 317
16 39 331
16 40 187
16 41 321
16 42 239
16 43 752
16 44 514
16 45 553
16 46 428
16 47 779
16 48 728
16 49 371
16 50 728
17 18 253
17 19 366
17 20 700
17 21 122
17 22 679
17 23 630
17 24 648
17 25 729
17 26 65
17 27 496
17 28 421
17 29 338
17 30 315
17 31 707
17 32 543
17 33 353
17 34 310
17 35 405
17 36 199
17 37 292
17 38 561
17 39 409
17 40 605
17 41 606
17 42 460
17 43 102
17 44 760
17 45 510
17 46 312
17 47 528
17 48 402
17 49 614
17 50 571
18 19 546
18 20 570
18 21 294
18 22 535
18 23 827
18 24 616
18 25 736
18 26 226
18 27 634
18 28 597
18 29 586
18 30 205
18 31 631
18 32 762
18 33 217
18 34 480
18 35 638
18 36 228
18 37 356
18 38 542
18 39 427
18 40 759
18 41 582
18 42 512
18 43 235
18 44 670
18 45 382
18 46 524
18 47 302
18 48 654
18 49 569
18 50 371
19 20 687
19 21 467
19 22 692
19 23 281
19 24 504
19 25 512
19 26 342
19 27 153
19 28 54
19 29 422
19 30 449
19 31 614
19 32 242
19 33 486
19 34 65
19 35 534
19 36 565
19 37 241
19 38 429
19 39 306
19 40 241
19 41 465
19 42 269
19 43 467
19 44 675
19 45 551
19 46 93
19 47 706
19 48 403
19 49 501
19 50 697
20 21 805
20 22 48
20 23 894
20 24 260
20 25 392
20 26 635
20 27 637
20 28 705
20 29 999
20 30 392
20 31 154
20 32 918
20 33 362
20 34 646
20 35 1091
20 36 788
20 37 476
20 38 284
20 39 381
20 40 740
20 41 273
20 42 432
20 43 753
20 44 143
20 45 193
20 46 746
20 47 358
20 48 1028
20 49 223
20 50 260
21 22 780
21 23 714
21 24 768
21 25 851
21 26 184
21 27 607
21 28 521
21 29 311
21 30 414
21 31 823
21 32 612
21 33 448
21 34 417
21 35 347
21 36 126
21 37 415
21 38 682
21 39 531
21 40 708
21 41 726
21 42 582
21 43 59
21 44 874
21 45 613
21 46 399
21 47 593
21 48 394
21 49 733
21 50 651
22 23 909
22 24 294
22 25 431
22 26 615
22 27 652
22 28 713
22 29 986
22 30 366
22 31 197
22 32 926
22 33 333
22 34 647
22 35 1075
22 36 756
22 37 471
22 38 306
22 39 385
22 40 760
22 41 301
22 42 445
22 43 727
22 44 191
22 45 169
22 46 745
22 47 311
22 48 1019
22 49 252
22 50 213
23 24 662
23 25 607
23 26 617
23 27 257
23 28 231
23 29 558
23 30 722
23 31 785
23 32 135
23 33 756
23 34 346
23 35 661
23 36 826
23 37 509
23 38 611
23 39 537
23 40 169
23 41 632
23 42 464
23 43 726
23 44 844
23 45 793
23 46 318
23 47 974
23 48 495
23 49 679
23 50 954
24 25 144
24 26 584
24 27 414
24 28 506
24 29 884
24 30 411
24 31 124
24 32 708
24 33 405
24 34 482
24 35 988
24 36 792
24 37 363
24 38 87
24 39 242
24 40 499
24 41 43
24 42 235
24 43 729
24 44 182
24 45 285
24 46 583
24 47 525
24 48 891
24 49 53
24 50 448
25 26 669
25 27 387
25 28 498
25 29 922
25 30 533
25 31 241
25 32 678
25 33 534
25 34 508
25 35 1031
25 36 892
25 37 436
25 38 195
25 39 323
25 40 437
25 41 161
25 42 273
25 43 819
25 44 281
25 45 427
25 46 601
25 47 668
25 48 914
25 49 196
25 50 592
26 27 459
26 28 397
26 29 388
26 30 254
26 31 642
26 32 541
26 33 293
26 34 281
26 35 464
26 36 237
26 37 233
26 38 498
26 39 347
26 40 574
26 41 542
26 42 403
26 43 150
26 44 695
26 45 446
26 46 304
26 47 479
26 48 444
26 49 549
26 50 516
27 28 118
27 29 573
27 30 493
27 31 535
27 32 295
27 33 522
27 34 189
27 35 685
27 36 693
27 37 283
27 38 356
27 39 284
27 40 127
27 41 381
27 42 207
27 43 598
27 44 595
27 45 540
27 46 246
27 47 735
27 48 547
27 49 426
27 50 705
28 29 456
28 30 492
28 31 621
28 32 213
28 33 527
28 34 117
28 35 568
28 36 620
28 37 280
28 38 436
28 39 328
28 40 188
28 41 468
28 42 277
28 43 521
28 44 682
28 45 580
28 46 134
28 47 747
28 48 429
28 49 508
28 50 732
29 30 639
29 31 972
29 32 427
29 33 679
29 34 413
29 35 112
29 36 434
29 37 531
29 38 799
29 39 647
29 40 626
29 41 841
29 42 655
29 43 363
29 44 1031
29 45 820
29 46 328
29 47 866
29 48 91
29 49 865
29 50 904
30 31 431
30 32 689
30 33 41
30 34 387
30 35 718
30 36 400
30 37 213
30 38 338
30 39 241
30 40 621
30 41 377
30 42 332
30 43 361
30 44 474
30 45 199
30 46 464
30 47 258
30 48 685
30 49 364
30 50 269
31 32 827
31 33 413
31 34 585
31 35 1072
31 36 829
31 37 441
31 38 184
31 39 326
31 40 623
31 41 154
31 42 345
31 43 777
31 44 61
31 45 257
31 46 686
31 47 478
31 48 987
31 49 113
31 50 388
32 33 727
32 34 302
32 35 528
32 36 730
32 37 484
32 38 645
32 39 541
32 40 261
32 41 673
32 42 487
32 43 632
32 44 888
32 45 792
32 46 238
32 47 947
32 48 361
32 49 716
32 50 940
33 34 424
33 35 758
33 36 426
33 37 247
33 38 338
33 39 258
33 40 650
33 41 374
33 42 351
33 43 394
33 44 453
33 45 169
33 46 503
33 47 220
33 48 727
33 49 356
33 50 228
34 35 523
34 36 509
34 37 184
34 38 402
34 39 265
34 40 295
34 41 441
34 42 247
34 43 412
34 44 646
34 45 500
34 46 101
34 47 644
34 48 409
34 49 472
34 50 639
35 36 455
35 37 631
35 38 902
35 39 749
35 40 737
35 41 945
35 42 762
35 43 404
35 44 1130
35 45 906
35 46 440
35 47 931
35 48 168
35 49 966
35 50 977
36 37 464
36 38 710
36 39 569
36 40 804
36 41 753
36 42 635
36 43 99
36 44 875
36 45 596
36 46 508
36 47 527
36 48 519
36 49 751
36 50 599
37 38 275
37 39 120
37 40 411
37 41 320
37 42 171
37 43 384
37 44 499
37 45 317
37 46 276
37 47 466
37 48 552
37 49 336
37 50 455
38 39 155
38 40 455
38 41 44
38 42 160
38 43 643
38 44 246
38 45 247
38 46 503
38 47 485
38 48 808
38 49 71
38 50 420
39 40 406
39 41 199
39 42 92
39 43 496
39 44 385
39 45 256
39 46 366
39 47 457
39 48 662
39 49 217
39 50 421
40 41 472
40 42 323
40 43 706
40 44 680
40 45 659
40 46 319
40 47 861
40 48 583
40 49 520
40 50 827
41 42 195
41 43 688
41 44 214
41 45 267
41 46 541
41 47 508
41 48 849
41 49 50
41 50 436
42 43 554
42 44 406
42 45 336
42 46 347
42 47 547
42 48 657
42 49 232
42 50 506
43 44 827
43 45 560
43 46 408
43 47 534
43 48 441
43 49 691
43 50 593
44 45 289
44 46 747
44 47 493
44 48 1048
44 49 174
44 50 398
45 46 594
45 47 240
45 48 856
45 49 232
45 50 174
46 47 721
46 48 313
46 49 574
46 50 725
47 48 923
47 49 471
47 50 99
48 49 877
48 50 954
49 50 395
